0 5 
1 0 1 2 3 4 7 8 9 10 11 12 13 15 17 18 19 20 22 24 25 27 28 29 30 31 32 33 34 35 36 
2 6 14 16 21 23 26 

0 2 29 31 33 35 36 
1 0 1 3 4 5 6 7 8 9 10 11 12 13 14 15 16 17 18 19 20 21 22 23 24 25 26 27 
2 28 30 32 34 

0 3 4 5 6 7 8 9 10 28 30 32 33 34 35 36 
1 18 19 27 29 
2 0 1 2 11 12 13 14 15 16 17 20 21 22 23 24 25 26 31 

0 15 16 17 22 23 24 25 26 27 
1 8 10 18 
2 0 1 2 3 4 5 6 7 9 11 12 13 14 19 20 21 28 29 30 31 32 33 34 35 36 

0 1 7 9 11 12 13 14 15 19 20 21 22 28 
1 0 2 3 4 5 6 8 10 29 30 31 32 33 34 35 36 
2 16 17 18 23 24 25 26 27 

0 3 5 33 
1 1 11 12 13 14 15 16 17 18 19 20 21 22 23 24 25 26 27 28 29 30 31 32 
2 0 2 4 6 7 8 9 10 34 35 36 

0 0 1 2 3 4 5 7 8 9 10 11 13 17 18 19 25 27 28 29 30 31 32 33 34 35 36 
1 6 12 14 16 21 23 26 
2 15 20 22 24 

0 0 1 3 4 5 6 7 8 9 10 11 12 13 14 18 19 20 21 28 
1 15 16 17 22 23 24 25 26 27 
2 2 29 30 31 32 33 34 35 36 

0 0 1 4 6 7 8 9 10 11 12 13 15 17 18 19 20 22 24 25 26 27 28 29 30 31 
1 14 16 21 23 
2 2 3 5 32 33 34 35 36 

0 0 1 2 4 7 9 10 11 12 13 14 15 17 18 19 20 21 22 23 24 25 26 27 28 29 30 31 
1 3 5 32 33 34 35 36 
2 6 8 16 

0 0 2 3 4 5 6 7 8 9 10 34 35 36 
1 15 16 17 18 22 23 24 25 26 27 
2 1 11 12 13 14 19 20 21 28 29 30 31 32 33 

